WARNING: for repeatability, setting FPU to use double precision
============================[ Problem Statistics ]=============================
|                                                                             |
|  Number of variables:           755                                         |
|  Number of clauses:           27517                                         |
|  Parse time:                   0.01 s                                       |
|                                                                             |
c ============================[ Search Statistics ]==============================
c | Conflicts |          ORIGINAL         |          LEARNT          | Progress |
c |           |    Vars  Clauses Literals |    Limit  Clauses Lit/Cl |          |
c ===============================================================================
c Switched to VSIDS.
c Switched to LRB.
c Switched to VSIDS.
c Switched to LRB.
c Switched to VSIDS.
c Switched to LRB.
c Switched to VSIDS.
c Switched to LRB.
c Switched to VSIDS.
c Switched to LRB.
c Switched to VSIDS.
c Switched to LRB.
c Switched to VSIDS.
c Switched to LRB.
c Switched to VSIDS.
c Switched to LRB.
c Switched to VSIDS.
c Switched to LRB.
c Switched to VSIDS.
c Switched to LRB.
c Switched to VSIDS.
c ===============================================================================
restarts                  : 18761
conflicts                 : 11308560       (5205 /sec)
decisions                 : 15057284       (0.00 % random) (6930 /sec)
propagations              : 2179126334     (1002989 /sec)
conflict literals         : 399230898      (40.14 % deleted)

conflicts w/ DIP found    : 6882856        (60.86 % of conflicts)
conflicts w/ dangerous DIP: 0              (0.00 % of conflicts)
conflicts w/ DIP-learning : 138552         (1.23 % of conflicts)
decisions on ext vars     : 70600          (0.47 % of decisions)
total ext vars            : 89445       
tried delete ext vars     : 89229       
deleted ext vars          : 88940       
max ext vars              : 3516        

Memory used               : 267.00 MB
CPU time                  : 2172.63 s
DIP computation time      : 68.5312 s (3.15 % of total time)
ER_sel time               : 11.1251 s
ER_add time               : 0.284768 s
ER_delC time              : 0 s
ER_delV time              : 2.55398 s
ER_sub time               : 14.6788 s
ER_stat time              : 0 s

UNSATISFIABLE
